proyfinal/src/viki/013/experimentInOfficeAgust.take6.output/b0e94a08-29c3-474e-85a3-20c68d39339c.als.dat
{'cnf.clauses': '118081',
 'cnf.totvars': '69608',
 'conflict literals': '4',
 'conflicts': '4',
 'decisions': '2671',
 'memused.mb': '16.68',
 'outcome': 'UNSAT',
 'propagations': '23655',
 'restarts': '1',
 'solver.msecs': 29,
 'task.msecs': 75}
