proyfinal/src/viki/013/experimentInOfficeAgust.take6.output/b0e94a08-29c3-474e-85a3-20c68d39339c.als.out
Reading from standard input... Use '--help' for help.
============================[ Problem Statistics ]=============================
|                                                                             |
|  Number of variables:         69608                                         |
|  Number of clauses:          118081                                         |
|  Parse time:                   0.02 s                                       |
|                                                                             |
============================[ Search Statistics ]==============================
| Conflicts |          ORIGINAL         |          LEARNT          | Progress |
|           |    Vars  Clauses Literals |    Limit  Clauses Lit/Cl |          |
===============================================================================
===============================================================================
restarts              : 1
conflicts             : 4              (135 /sec)
decisions             : 2671           (0.00 % random) (89857 /sec)
propagations          : 23655          (795795 /sec)
conflict literals     : 4              (0.00 % deleted)
Memory used           : 16.68 MB
CPU time              : 0.029725 s

UNSATISFIABLE
